&GLOBAL
   PROJECT Test
&END GLOBAL
&FORCE_EVAL
   &SUBSYS
      &CELL
         ! unit cells that are orthorhombic are more efficient with CP2K
         ABC 11 11 10
         PERIODIC XYZ
      &END CELL
   &END SUBSYS
&END FORCE_EVAL
